
Gurobi 12.0.2 (win64) logging started Mon Nov  3 17:49:21 2025

Set parameter LogFile to value "resultados DATA_1_n50m05b2d2\instancia_3_log.txt"
Set parameter TimeLimit to value 1800
Gurobi Optimizer version 12.0.2 build v12.0.2rc0 (win64 - Windows 10.0 (19045.2))

CPU model: Intel(R) Core(TM) i5-6300U CPU @ 2.40GHz, instruction set [SSE2|AVX|AVX2]
Thread count: 2 physical cores, 4 logical processors, using up to 4 threads

Non-default parameters:
TimeLimit  1800

Optimize a model with 389 rows, 615 columns and 20778 nonzeros
Model fingerprint: 0x186e12bb
Variable types: 0 continuous, 615 integer (615 binary)
Coefficient statistics:
  Matrix range     [1e+00, 1e+00]
  Objective range  [2e-02, 2e-01]
  Bounds range     [1e+00, 1e+00]
  RHS range        [1e+00, 6e+00]
Found heuristic solution: objective 0.6077840
Presolve removed 113 rows and 479 columns
Presolve time: 0.02s
Presolved: 276 rows, 136 columns, 3206 nonzeros
Variable types: 0 continuous, 136 integer (136 binary)

Root relaxation: objective 7.059080e-01, 87 iterations, 0.00 seconds (0.00 work units)

    Nodes    |    Current Node    |     Objective Bounds      |     Work
 Expl Unexpl |  Obj  Depth IntInf | Incumbent    BestBd   Gap | It/Node Time

     0     0    0.70591    0    5    0.60778    0.70591  16.1%     -    0s
H    0     0                       0.6519680    0.70591  8.27%     -    0s
     0     0    0.68562    0   13    0.65197    0.68562  5.16%     -    0s
H    0     0                       0.6836880    0.68562  0.28%     -    0s
     0     0    0.68382    0   11    0.68369    0.68382  0.02%     -    0s
     0     0    0.68382    0   11    0.68369    0.68382  0.02%     -    0s
     0     0     cutoff    0         0.68369    0.68369  0.00%     -    0s

Cutting planes:
  Gomory: 2
  Zero half: 2

Explored 1 nodes (189 simplex iterations) in 0.10 seconds (0.02 work units)
Thread count was 4 (of 4 available processors)

Solution count 3: 0.683688 0.651968 0.607784 
No other solutions better than 0.683688

Optimal solution found (tolerance 1.00e-04)
Best objective 6.836880000000e-01, best bound 6.836880000000e-01, gap 0.0000%
